N = 9;
H = 6;
T = 2;

avail = array3d(1..N, 1..H, 1..T, [1, 4, 6, 6, 6, 3, 2, 5, 3, 5, 6, 7, 1, 1, 8, 0, 8, 2, 0, 3, 0, 1, 6, 7, 4, 2, 5, 3, 0, 3, 2, 6, 0, 8, 8, 9, 8, 5, 5, 8, 8, 8, 5, 9, 1, 7, 2, 5, 4, 3, 3, 1, 5, 1, 6, 7, 2, 3, 1, 2, 6, 8, 2, 4, 8, 5, 2, 9, 8, 4, 5, 1, 7, 2, 6, 6, 2, 3, 1, 10, 4, 1, 10, 4, 6, 7, 2, 2, 7, 7, 4, 1, 7, 9, 3, 7, 5, 3, 0, 7, 2, 2, 0, 5, 3, 10, 8, 7]);

r = array2d(1..H, 1..T, [2, 3, 1, 0, 4, 1, 0, 3, 1, 2, 1, 1]);
